; benchmark generated from python API
(set-info :status unknown)
(declare-fun x_months () (_ BitVec 32))
(declare-fun x_beta () (_ BitVec 32))
(assert
 (bvsle (_ bv4294966096 32) x_months))
(assert
 (bvsge (_ bv1199 32) x_months))
(assert
 (bvsle (_ bv0 32) x_beta))
(assert
 (let ((?x28462 (bvadd x_months (_ bv24003 32))))
 (let ((?x7763 (bvsub ?x28462 (bvmul (bvsdiv (bvsub ?x28462 (_ bv1 32)) (_ bv12 32)) (_ bv12 32)))))
 (let ((?x49999 (ite (or (= ?x7763 (_ bv4 32)) (= ?x7763 (_ bv6 32)) (= ?x7763 (_ bv9 32)) (= ?x7763 (_ bv11 32))) (_ bv30 32) (_ bv31 32))))
 (let (($x4136 (and (= (bvsmod (bvsdiv (bvsub ?x28462 (_ bv1 32)) (_ bv12 32)) (_ bv4 32)) (_ bv0 32)) (and (distinct (bvsmod (bvsdiv (bvsub ?x28462 (_ bv1 32)) (_ bv12 32)) (_ bv100 32)) (_ bv0 32)) true))))
 (let ((?x62459 (ite (or $x4136 (= (bvsmod (bvsdiv (bvsub ?x28462 (_ bv1 32)) (_ bv12 32)) (_ bv400 32)) (_ bv0 32))) (_ bv29 32) (_ bv28 32))))
 (bvslt x_beta (ite (= ?x7763 (_ bv2 32)) ?x62459 ?x49999))))))))
(assert
 (let (($x75689 (bvsle (_ bv30 32) x_beta)))
 (or (bvsgt x_months (bvsub (bvadd (bvmul (_ bv2023 32) (_ bv12 32)) (_ bv1 32)) (_ bv24003 32))) (and (= x_months (bvsub (bvadd (bvmul (_ bv2023 32) (_ bv12 32)) (_ bv1 32)) (_ bv24003 32))) $x75689))))
(assert
 (let ((?x61161 (bvadd x_beta (_ bv1 32))))
(let ((?x81953 (bvsdiv (bvsub (bvadd (bvadd x_months (_ bv1 32)) (_ bv24003 32)) (_ bv1 32)) (_ bv12 32))))
(let ((?x31589 (bvadd (bvadd x_months (_ bv1 32)) (_ bv24003 32))))
(let ((?x63621 (bvsub ?x31589 (bvmul ?x81953 (_ bv12 32)))))
(let ((?x6790 (ite (or (= ?x63621 (_ bv4 32)) (= ?x63621 (_ bv6 32)) (= ?x63621 (_ bv9 32)) (= ?x63621 (_ bv11 32))) (_ bv30 32) (_ bv31 32))))
(let (($x24453 (or (and (= (bvsmod ?x81953 (_ bv4 32)) (_ bv0 32)) (and (distinct (bvsmod ?x81953 (_ bv100 32)) (_ bv0 32)) true)) (= (bvsmod ?x81953 (_ bv400 32)) (_ bv0 32)))))
(let ((?x43055 (ite (= ?x63621 (_ bv2 32)) (ite $x24453 (_ bv29 32) (_ bv28 32)) ?x6790)))
(let ((?x83810 (ite (bvsgt (_ bv1 32) ?x61161) (_ bv1 32) (ite (bvsgt ?x61161 ?x43055) ?x43055 ?x61161))))
(let ((?x12123 (ite (bvsgt (_ bv1 32) ?x83810) (_ bv1 32) (ite (bvsgt ?x83810 ?x43055) ?x43055 ?x83810))))
(let ((?x83251 (ite (= (_ bv2 32) ?x63621) (ite $x24453 (_ bv31 32) (_ bv31 32)) (ite (= (_ bv1 32) ?x63621) (ite $x24453 (_ bv0 32) (_ bv0 32)) (_ bv0 32)))))
(let ((?x60000 (ite (= (_ bv4 32) ?x63621) (ite $x24453 (_ bv91 32) (_ bv90 32)) (ite (= (_ bv3 32) ?x63621) (ite $x24453 (_ bv60 32) (_ bv59 32)) ?x83251))))
(let ((?x38300 (ite (= (_ bv6 32) ?x63621) (ite $x24453 (_ bv152 32) (_ bv151 32)) (ite (= (_ bv5 32) ?x63621) (ite $x24453 (_ bv121 32) (_ bv120 32)) ?x60000))))
(let ((?x19386 (ite (= (_ bv8 32) ?x63621) (ite $x24453 (_ bv213 32) (_ bv212 32)) (ite (= (_ bv7 32) ?x63621) (ite $x24453 (_ bv182 32) (_ bv181 32)) ?x38300))))
(let ((?x18197 (ite (= (_ bv10 32) ?x63621) (ite $x24453 (_ bv274 32) (_ bv273 32)) (ite (= (_ bv9 32) ?x63621) (ite $x24453 (_ bv244 32) (_ bv243 32)) ?x19386))))
(let ((?x83957 (ite (= (_ bv12 32) ?x63621) (ite $x24453 (_ bv335 32) (_ bv334 32)) (ite (= (_ bv11 32) ?x63621) (ite $x24453 (_ bv305 32) (_ bv304 32)) ?x18197))))
(let ((?x84171 (bvadd (bvmul (_ bv365 32) (bvsub ?x81953 (_ bv1 32))) (bvsdiv (bvsub ?x81953 (_ bv1 32)) (_ bv4 32)))))
(let ((?x6221 (bvadd (bvsub ?x84171 (bvsdiv (bvsub ?x81953 (_ bv1 32)) (_ bv100 32))) (bvsdiv (bvsub ?x81953 (_ bv1 32)) (_ bv400 32)))))
(let ((?x79408 (bvadd (bvadd (bvsub (bvadd (bvadd ?x6221 ?x83957) (bvsub ?x12123 (_ bv1 32))) (_ bv730179 32)) (_ bv0 32)) (_ bv730179 32))))
(let ((?x4273 (bvsmod ?x79408 (_ bv146097 32))))
(let ((?x58389 (bvsdiv ?x4273 (_ bv36524 32))))
(let ((?x69138 (ite (bvsle (_ bv4 32) ?x58389) (_ bv3 32) ?x58389)))
(let ((?x61295 (bvsub ?x4273 (bvmul ?x69138 (_ bv36524 32)))))
(let ((?x4936 (bvsmod ?x61295 (_ bv1461 32))))
(let ((?x69508 (bvsdiv ?x4936 (_ bv365 32))))
(let ((?x70554 (ite (bvsle (_ bv4 32) ?x69508) (_ bv3 32) ?x69508)))
(let ((?x84876 (bvadd (bvadd (bvmul (bvsdiv ?x79408 (_ bv146097 32)) (_ bv400 32)) (bvmul ?x69138 (_ bv100 32))) (bvmul (bvsdiv ?x61295 (_ bv1461 32)) (_ bv4 32)))))
(let ((?x63272 (bvadd (bvadd ?x84876 ?x70554) (_ bv1 32))))
(let (($x84628 (or (and (= (bvsmod ?x63272 (_ bv4 32)) (_ bv0 32)) (and (distinct (bvsmod ?x63272 (_ bv100 32)) (_ bv0 32)) true)) (= (bvsmod ?x63272 (_ bv400 32)) (_ bv0 32)))))
(let ((?x31332 (bvsub ?x4936 (bvmul ?x70554 (_ bv365 32)))))
(let ((?x61945 (ite $x84628 (_ bv31 32) (_ bv31 32))))
(let (($x12971 (bvsge ?x31332 ?x61945)))
(let ((?x23124 (ite $x12971 (bvadd (bvsub ?x31332 ?x61945) (_ bv1 32)) (bvadd (bvsub ?x31332 (ite $x84628 (_ bv0 32) (_ bv0 32))) (_ bv1 32)))))
(let ((?x48042 (ite $x84628 (_ bv60 32) (_ bv59 32))))
(let (($x32420 (bvsge ?x31332 ?x48042)))
(let ((?x60946 (ite $x84628 (_ bv91 32) (_ bv90 32))))
(let (($x12790 (bvsge ?x31332 ?x60946)))
(let ((?x88536 (ite $x12790 (bvadd (bvsub ?x31332 ?x60946) (_ bv1 32)) (ite $x32420 (bvadd (bvsub ?x31332 ?x48042) (_ bv1 32)) ?x23124))))
(let ((?x41040 (ite $x84628 (_ bv121 32) (_ bv120 32))))
(let (($x19973 (bvsge ?x31332 ?x41040)))
(let ((?x46741 (ite $x84628 (_ bv152 32) (_ bv151 32))))
(let (($x83426 (bvsge ?x31332 ?x46741)))
(let ((?x47704 (ite $x83426 (bvadd (bvsub ?x31332 ?x46741) (_ bv1 32)) (ite $x19973 (bvadd (bvsub ?x31332 ?x41040) (_ bv1 32)) ?x88536))))
(let ((?x39985 (ite $x84628 (_ bv182 32) (_ bv181 32))))
(let (($x61176 (bvsge ?x31332 ?x39985)))
(let ((?x17289 (ite $x84628 (_ bv213 32) (_ bv212 32))))
(let (($x1616 (bvsge ?x31332 ?x17289)))
(let ((?x88550 (ite $x1616 (bvadd (bvsub ?x31332 ?x17289) (_ bv1 32)) (ite $x61176 (bvadd (bvsub ?x31332 ?x39985) (_ bv1 32)) ?x47704))))
(let ((?x18936 (ite $x84628 (_ bv244 32) (_ bv243 32))))
(let (($x86059 (bvsge ?x31332 ?x18936)))
(let ((?x96092 (ite $x84628 (_ bv274 32) (_ bv273 32))))
(let (($x44803 (bvsge ?x31332 ?x96092)))
(let ((?x47721 (ite $x44803 (bvadd (bvsub ?x31332 ?x96092) (_ bv1 32)) (ite $x86059 (bvadd (bvsub ?x31332 ?x18936) (_ bv1 32)) ?x88550))))
(let ((?x96100 (ite $x84628 (_ bv305 32) (_ bv304 32))))
(let (($x88910 (bvsge ?x31332 ?x96100)))
(let ((?x80918 (ite $x84628 (_ bv335 32) (_ bv334 32))))
(let (($x24008 (bvsge ?x31332 ?x80918)))
(let ((?x44043 (ite $x24008 (bvadd (bvsub ?x31332 ?x80918) (_ bv1 32)) (ite $x88910 (bvadd (bvsub ?x31332 ?x96100) (_ bv1 32)) ?x47721))))
(let (($x2020 (= (_ bv0 32) (_ bv0 32))))
(let ((?x88516 (bvsub (bvadd (bvmul (_ bv2023 32) (_ bv12 32)) (_ bv3 32)) (_ bv24003 32))))
(let ((?x62671 (ite $x83426 (_ bv6 32) (ite $x19973 (_ bv5 32) (ite $x12790 (_ bv4 32) (ite $x32420 (_ bv3 32) (ite $x12971 (_ bv2 32) (_ bv1 32))))))))
(let ((?x6487 (ite $x88910 (_ bv11 32) (ite $x44803 (_ bv10 32) (ite $x86059 (_ bv9 32) (ite $x1616 (_ bv8 32) (ite $x61176 (_ bv7 32) ?x62671)))))))
(let ((?x46665 (bvadd (bvmul (ite $x2020 ?x81953 ?x63272) (_ bv12 32)) (ite $x2020 ?x63621 (ite $x24008 (_ bv12 32) ?x6487)))))
(let ((?x52292 (bvsub ?x46665 (_ bv24003 32))))
(or (bvslt ?x52292 ?x88516) (and (= ?x52292 ?x88516) (bvsge (_ bv0 32) (bvsub (ite $x2020 ?x12123 ?x44043) (_ bv1 32)))))))))))))))))))))))))))))))))))))))))))))))))))))))))))))))))))))
(check-sat)
